(set-option :produce-models true); benchmark generated from python API
(set-info :status unknown)
(declare-fun l_1_0_8 () Real)
(declare-fun l_1_0_7 () Real)
(declare-fun l_1_0_6 () Real)
(declare-fun l_1_0_5 () Real)
(declare-fun l_1_0_4 () Real)
(declare-fun l_1_0_3 () Real)
(declare-fun l_1_0_2 () Real)
(declare-fun l_1_0_11 () Real)
(declare-fun l_1_0_10 () Real)
(declare-fun l_1_0_1 () Real)
(declare-fun _a_0_ () Real)
(declare-fun l_1_0_9 () Real)
(declare-fun _a_1_ () Real)
(declare-fun l_1_1_16 () Real)
(declare-fun l_1_1_15 () Real)
(declare-fun l_1_1_9 () Real)
(declare-fun l_1_1_7 () Real)
(declare-fun l_1_1_5 () Real)
(declare-fun l_1_1_3 () Real)
(declare-fun l_1_1_11 () Real)
(declare-fun l_1_1_2 () Real)
(declare-fun l_1_1_8 () Real)
(declare-fun l_1_1_6 () Real)
(declare-fun l_1_1_13 () Real)
(declare-fun l_1_1_10 () Real)
(declare-fun l_1_1_4 () Real)
(declare-fun l_1_1_17 () Real)
(declare-fun l_1_1_14 () Real)
(declare-fun l_1_1_12 () Real)
(declare-fun l_1_1_1 () Real)
(declare-fun l_1_2_1 () Real)
(declare-fun l_1_2_2 () Real)
(declare-fun l_1_2_3 () Real)
(declare-fun l_1_2_4 () Real)
(declare-fun l_1_2_5 () Real)
(declare-fun l_1_2_6 () Real)
(declare-fun l_1_2_7 () Real)
(declare-fun l_1_2_8 () Real)
(declare-fun l_1_2_9 () Real)
(declare-fun l_1_2_10 () Real)
(declare-fun l_1_2_11 () Real)
(declare-fun l_1_2_12 () Real)
(declare-fun l_1_2_13 () Real)
(declare-fun l_1_2_14 () Real)
(declare-fun l_1_2_15 () Real)
(declare-fun l_1_2_17 () Real)
(assert
 (let ((?x285 (* l_1_0_11 l_1_0_11)))
 (let ((?x25 (- (- (- (- _a_0_ l_1_0_1) (* l_1_0_10 l_1_0_10)) ?x285) (* 1.0 l_1_0_2))))
 (let ((?x280 (- (- (- (- ?x25 (* 1.0 l_1_0_3)) (* 1.0 l_1_0_4)) l_1_0_5) (* 1.0 l_1_0_6))))
 (= (- (- ?x280 l_1_0_7) l_1_0_8) 0.0)))))
(assert
 (= (- _a_1_ (* (* 2.0 l_1_0_10) l_1_0_9)) 0.0))
(assert
 (let ((?x134 (* l_1_0_9 l_1_0_9)))
 (let ((?x135 (- (+ (+ (+ l_1_0_2 (* 2.0 l_1_0_3)) l_1_0_4) l_1_0_6) ?x134)))
 (= (- ?x135 1.0) 0.0))))
(assert
 (= (- l_1_0_3) 0.0))
(assert
 (>= l_1_0_1 0.0))
(assert
 (>= l_1_0_2 0.0))
(assert
 (>= l_1_0_3 0.0))
(assert
 (>= l_1_0_4 0.0))
(assert
 (>= l_1_0_5 0.0))
(assert
 (>= l_1_0_6 0.0))
(assert
 (>= l_1_0_7 0.0))
(assert
 (>= l_1_0_8 0.0))
(assert
 (>= l_1_0_9 0.0))
(assert
 (>= l_1_0_11 0.0))
(assert
 (let ((?x84 (* _a_1_ l_1_1_9)))
 (let ((?x82 (* _a_1_ l_1_1_7)))
 (let ((?x106 (* _a_1_ l_1_1_3)))
 (let ((?x105 (+ (* (* (* (- 2.0) _a_0_) _a_1_) l_1_1_2) (* (* 9.0 _a_1_) l_1_1_11))))
 (let ((?x32 (- (- (+ (- ?x105 ?x106) (* (* 9.0 _a_1_) l_1_1_5)) ?x82) ?x84)))
 (= (+ (- ?x32 (* (* 2.0 l_1_1_15) l_1_1_16)) 8.0) 0.0)))))))
(assert
 (let ((?x192 (* l_1_1_15 l_1_1_15)))
 (let ((?x197 (- (- (* 18.0 l_1_1_10) (* l_1_1_11 (+ _a_0_ 9.0))) l_1_1_13)))
 (let ((?x93 (- (- ?x197 ?x192) (* l_1_1_2 (+ (* (- 2.0) _a_0_) (* _a_1_ _a_1_))))))
 (let ((?x143 (+ (- (- (+ ?x93 l_1_1_3) (* l_1_1_5 (+ _a_0_ 9.0))) l_1_1_6) l_1_1_7)))
 (= (- (+ (- ?x143 l_1_1_8) l_1_1_9) 1.0) 0.0))))))
(assert
 (let ((?x328 (* 9.0 l_1_1_8)))
 (let ((?x326 (* 9.0 l_1_1_6)))
 (let ((?x321 (* l_1_1_17 l_1_1_17)))
 (let ((?x319 (* l_1_1_16 l_1_1_16)))
 (let ((?x316 (* 9.0 l_1_1_13)))
 (let ((?x313 (* 81.0 l_1_1_10)))
 (let ((?x309 (* _a_0_ l_1_1_9)))
 (let ((?x307 (* _a_0_ l_1_1_7)))
 (let ((?x306 (+ (- (* (* 9.0 _a_0_) l_1_1_11) (* _a_0_ l_1_1_3)) (* (* 9.0 _a_0_) l_1_1_5))))
 (let ((?x317 (+ (- (- (- (- (- ?x306 ?x307) ?x309) l_1_1_1) ?x313) l_1_1_12) ?x316)))
 (let ((?x324 (- (- (- (- ?x317 l_1_1_14) ?x319) ?x321) (* (* l_1_1_2 _a_0_) _a_0_))))
 (= (- (+ (+ (- ?x324 l_1_1_4) ?x326) ?x328) 15.0) 0.0)))))))))))))
(assert
 (let ((?x113 (* _a_1_ l_1_1_5)))
 (let ((?x382 (- (+ (* (- _a_1_) l_1_1_11) (* (* 2.0 _a_1_) l_1_1_2)) ?x113)))
 (= ?x382 0.0))))
(assert
 (= (+ (- (+ (- l_1_1_10) l_1_1_11) l_1_1_2) l_1_1_5) 0.0))
(assert
 (>= l_1_1_1 0.0))
(assert
 (>= l_1_1_2 0.0))
(assert
 (>= l_1_1_3 0.0))
(assert
 (>= l_1_1_4 0.0))
(assert
 (>= l_1_1_5 0.0))
(assert
 (>= l_1_1_6 0.0))
(assert
 (>= l_1_1_7 0.0))
(assert
 (>= l_1_1_8 0.0))
(assert
 (>= l_1_1_9 0.0))
(assert
 (>= l_1_1_10 0.0))
(assert
 (>= l_1_1_11 0.0))
(assert
 (>= l_1_1_12 0.0))
(assert
 (>= l_1_1_13 0.0))
(assert
 (>= l_1_1_14 0.0))
(assert
 (>= l_1_1_15 0.0))
(assert
 (>= l_1_1_17 0.0))
(assert
 false)
(assert
 (>= l_1_2_1 0.0))
(assert
 (>= l_1_2_2 0.0))
(assert
 (>= l_1_2_3 0.0))
(assert
 (>= l_1_2_4 0.0))
(assert
 (>= l_1_2_5 0.0))
(assert
 (>= l_1_2_6 0.0))
(assert
 (>= l_1_2_7 0.0))
(assert
 (>= l_1_2_8 0.0))
(assert
 (>= l_1_2_9 0.0))
(assert
 (>= l_1_2_10 0.0))
(assert
 (>= l_1_2_11 0.0))
(assert
 (>= l_1_2_12 0.0))
(assert
 (>= l_1_2_13 0.0))
(assert
 (>= l_1_2_14 0.0))
(assert
 (>= l_1_2_15 0.0))
(assert
 (>= l_1_2_17 0.0))
(check-sat)
(get-model)